unsat
(define-fun SC ((s (_ BitVec 4)) (t (_ BitVec 4))) Bool (bvult #b0000 t))
0.05user 0.00system 0:00.08elapsed 76%CPU (0avgtext+0avgdata 26160maxresident)k
8inputs+8outputs (0major+1214minor)pagefaults 0swaps
